(set-info :smt-lib-version 2.6)
(set-logic QF_UFLRA)
(set-info :source |
MathSat group

|)
(set-info :category "random")
(set-info :status sat)
(declare-fun x0 () Real)
(declare-fun x1 () Real)
(declare-fun x2 () Real)
(declare-fun x3 () Real)
(declare-fun x4 () Real)
(declare-fun x5 () Real)
(declare-fun x6 () Real)
(declare-fun x7 () Real)
(declare-fun x8 () Real)
(declare-fun x9 () Real)
(declare-fun x10 () Real)
(declare-fun x11 () Real)
(declare-fun x12 () Real)
(declare-fun x13 () Real)
(declare-fun x14 () Real)
(declare-fun x15 () Real)
(declare-fun x16 () Real)
(declare-fun x17 () Real)
(declare-fun x18 () Real)
(declare-fun x19 () Real)
(declare-fun x20 () Real)
(declare-fun x21 () Real)
(declare-fun x22 () Real)
(declare-fun x23 () Real)
(declare-fun x24 () Real)
(declare-fun x25 () Real)
(declare-fun x26 () Real)
(declare-fun x27 () Real)
(declare-fun x28 () Real)
(declare-fun x29 () Real)
(declare-fun x30 () Real)
(declare-fun x31 () Real)
(declare-fun x32 () Real)
(declare-fun x33 () Real)
(declare-fun x34 () Real)
(declare-fun x35 () Real)
(declare-fun x36 () Real)
(declare-fun x37 () Real)
(declare-fun x38 () Real)
(declare-fun x39 () Real)
(declare-fun x40 () Real)
(declare-fun x41 () Real)
(declare-fun x42 () Real)
(declare-fun x43 () Real)
(declare-fun x44 () Real)
(declare-fun x45 () Real)
(declare-fun x46 () Real)
(declare-fun x47 () Real)
(declare-fun x48 () Real)
(declare-fun x49 () Real)
(declare-fun f0_1 (Real) Real)
(declare-fun f0_2 (Real Real) Real)
(declare-fun f0_3 (Real Real Real) Real)
(declare-fun f0_4 (Real Real Real Real) Real)
(declare-fun P0 () Bool)
(declare-fun P1 () Bool)
(declare-fun P2 () Bool)
(declare-fun P3 () Bool)
(declare-fun P4 () Bool)
(declare-fun P5 () Bool)
(declare-fun P6 () Bool)
(declare-fun P7 () Bool)
(declare-fun P8 () Bool)
(declare-fun P9 () Bool)
(declare-fun P10 () Bool)
(declare-fun P11 () Bool)
(declare-fun P12 () Bool)
(declare-fun P13 () Bool)
(declare-fun P14 () Bool)
(declare-fun P15 () Bool)
(declare-fun P16 () Bool)
(declare-fun P17 () Bool)
(declare-fun P18 () Bool)
(declare-fun P19 () Bool)
(declare-fun P20 () Bool)
(declare-fun P21 () Bool)
(declare-fun P22 () Bool)
(declare-fun P23 () Bool)
(declare-fun P24 () Bool)
(declare-fun P25 () Bool)
(declare-fun P26 () Bool)
(declare-fun P27 () Bool)
(declare-fun P28 () Bool)
(declare-fun P29 () Bool)
(declare-fun P30 () Bool)
(declare-fun P31 () Bool)
(declare-fun P32 () Bool)
(declare-fun P33 () Bool)
(declare-fun P34 () Bool)
(declare-fun P35 () Bool)
(declare-fun P36 () Bool)
(declare-fun P37 () Bool)
(declare-fun P38 () Bool)
(declare-fun P39 () Bool)
(declare-fun P40 () Bool)
(declare-fun P41 () Bool)
(declare-fun P42 () Bool)
(declare-fun P43 () Bool)
(declare-fun P44 () Bool)
(declare-fun P45 () Bool)
(declare-fun P46 () Bool)
(declare-fun P47 () Bool)
(declare-fun P48 () Bool)
(declare-fun P49 () Bool)
(assert (let ((?v_47 (* 20 x3)) (?v_37 (* 4 x22)) (?v_41 (* 15 x33)) (?v_48 (* 23 x23)) (?v_30 (* 7 x8))) (let ((?v_166 (distinct (+ (- ?v_30 (* 8 x4)) (* 13 x33)) 5)) (?v_44 (<= (+ (- (* 10 x18) (* 27 x33)) (* 8 x40)) 17)) (?v_16 (<= (- (+ (* 27 x2) (* 6 x42)) (* 19 x47)) 11)) (?v_223 (< (- (+ (* 12 x35) (* 17 x19)) (* 5 x49)) 6)) (?v_110 (f0_1 x37))) (let ((?v_181 (= (f0_2 x47 x46) ?v_110)) (?v_25 (f0_1 x7))) (let ((?v_54 (distinct x17 ?v_25)) (?v_46 (= (f0_2 x37 x2) (f0_2 x30 x4))) (?v_105 (distinct (f0_2 x22 x19) (f0_2 x23 x2))) (?v_87 (= x31 (f0_2 x34 x11))) (?v_108 (distinct x27 (f0_2 x38 x31))) (?v_190 (= x40 ?v_25)) (?v_162 (distinct x31 x24)) (?v_8 (f0_1 x34))) (let ((?v_111 (= ?v_8 x9)) (?v_23 (f0_1 x24))) (let ((?v_161 (= ?v_23 (f0_1 x1))) (?v_64 (distinct ?v_8 (f0_2 x32 x1))) (?v_80 (f0_1 x13))) (let ((?v_4 (distinct ?v_80 (f0_2 x5 x38))) (?v_191 (= x36 (f0_2 x9 x22))) (?v_247 (distinct x45 (f0_1 x32))) (?v_149 (= x5 (f0_1 x40))) (?v_27 (distinct x29 (f0_1 x3))) (?v_35 (f0_1 x35))) (let ((?v_40 (= ?v_35 (f0_2 x12 x34))) (?v_68 (f0_1 x18))) (let ((?v_70 (distinct ?v_68 (f0_1 x25))) (?v_28 (= (f0_2 x37 x32) (f0_2 x48 x47))) (?v_196 (distinct x0 ?v_23)) (?v_132 (distinct x2 (f0_1 x11))) (?v_167 (= x29 ?v_110)) (?v_107 (= (f0_2 x47 x45) (f0_1 x31))) (?v_59 (distinct x32 (f0_2 x23 x27))) (?v_143 (= (f0_2 x37 x20) x27)) (?v_74 (distinct (f0_1 x47) (f0_1 x22))) (?v_61 (f0_1 x41))) (let ((?v_246 (distinct x28 ?v_61)) (?v_55 (= ?v_35 (f0_1 x49))) (?v_12 (distinct x15 x33)) (?v_226 (distinct (f0_2 x34 x24) (f0_1 x29))) (?v_220 (distinct ?v_61 x22)) (?v_81 (distinct (f0_2 x44 x48) ?v_80)) (?v_14 (= x44 (f0_2 x48 x0))) (?v_97 (distinct x19 (f0_1 x28))) (?v_136 (= x21 (f0_2 x3 x10))) (?v_114 (distinct (f0_2 x40 x23) (f0_1 x48))) (?v_32 (= x19 (f0_2 x5 x46))) (?v_179 (distinct (f0_2 x26 x36) (f0_1 x10))) (?v_116 (= x14 x3)) (?v_157 (distinct (f0_1 x30) x45)) (?v_115 (distinct x6 x24)) (?v_171 (= x36 ?v_23)) (?v_123 (= ?v_35 (f0_2 x16 x12))) (?v_22 (= ?v_25 x10)) (?v_45 (distinct (f0_1 x6) ?v_68)) (?v_234 (distinct (f0_2 x30 x20) x41)) (?v_205 (distinct (f0_2 x35 x41) (f0_1 x20))) (?v_93 (distinct x1 x31)) (?v_5 (= (f0_2 x42 x24) x10)) (?v_127 (not ?v_223)) (?v_31 (not P22)) (?v_9 (not P5))) (let ((?v_0 (not ?v_205)) (?v_18 (not P30)) (?v_3 (not ?v_46)) (?v_39 (not ?v_27)) (?v_78 (not ?v_157)) (?v_58 (not P18)) (?v_1 (not ?v_4)) (?v_229 (not P45)) (?v_24 (not ?v_247)) (?v_19 (not ?v_162)) (?v_139 (not P42)) (?v_73 (not ?v_16)) (?v_10 (not ?v_196)) (?v_121 (not ?v_5)) (?v_53 (not P19)) (?v_192 (not ?v_32)) (?v_76 (not P12)) (?v_79 (not P34)) (?v_91 (not ?v_191)) (?v_36 (not P32)) (?v_17 (not ?v_64)) (?v_206 (not ?v_246)) (?v_34 (not P25)) (?v_231 (not P6)) (?v_21 (not P41)) (?v_250 (not ?v_22)) (?v_141 (not ?v_171)) (?v_195 (not P28)) (?v_165 (not P27)) (?v_38 (not P26)) (?v_207 (not ?v_123)) (?v_63 (not P21)) (?v_65 (not P20)) (?v_50 (not P37)) (?v_56 (not P4)) (?v_66 (not ?v_40)) (?v_252 (not ?v_161)) (?v_77 (not P3)) (?v_261 (not ?v_181)) (?v_216 (not ?v_74)) (?v_151 (not P33)) (?v_62 (not ?v_55)) (?v_124 (not ?v_44)) (?v_227 (not P23)) (?v_199 (not ?v_54)) (?v_155 (not ?v_226)) (?v_94 (not ?v_59)) (?v_75 (not ?v_220)) (?v_104 (not P49)) (?v_154 (not ?v_87)) (?v_169 (not P11)) (?v_89 (not P0)) (?v_168 (not ?v_143)) (?v_101 (not P14)) (?v_90 (not P8)) (?v_120 (not ?v_81)) (?v_118 (not P7)) (?v_122 (not ?v_70)) (?v_163 (not ?v_234)) (?v_186 (not ?v_12)) (?v_180 (not P2)) (?v_173 (not ?v_28)) (?v_211 (not ?v_190)) (?v_212 (not ?v_45)) (?v_135 (not P39)) (?v_204 (not ?v_97)) (?v_176 (not P47)) (?v_156 (not P16)) (?v_134 (not ?v_149)) (?v_232 (not ?v_105)) (?v_217 (not P48)) (?v_140 (not ?v_107)) (?v_164 (not ?v_108)) (?v_214 (not ?v_111)) (?v_203 (not P31)) (?v_225 (not P13)) (?v_159 (not ?v_14)) (?v_145 (not ?v_132)) (?v_137 (not P35)) (?v_224 (not ?v_136)) (?v_235 (not P1)) (?v_152 (not P10)) (?v_208 (not P40)) (?v_198 (not P36)) (?v_230 (not P9)) (?v_188 (not ?v_93)) (?v_240 (not ?v_166)) (?v_182 (not P29)) (?v_200 (not P46)) (?v_184 (not ?v_114)) (?v_228 (not P44)) (?v_222 (not ?v_116)) (?v_245 (not P43)) (?v_219 (not P24)) (?v_215 (not P38)) (?v_255 (not ?v_179)) (?v_254 (not (= x33 x12))) (?v_257 (not P17)) (?v_259 (not ?v_167)) (?v_253 (not P15)) (?v_260 (not ?v_115)) (?v_2 (< (+ (* 6 x12) (* 17 x34) (* 18 x28)) 21)) (?v_20 (< (+ (- 0 (* 10 x13)) (* 24 x19)) 21))) (let ((?v_72 (not ?v_2)) (?v_42 (distinct (+ (- 0 ?v_47) (* 25 x19)) 13))) (let ((?v_160 (not ?v_42)) (?v_82 (<= (- (- (* 7 x36) (* 17 x44)) x14) 1)) (?v_146 (< (+ ?v_37 x1) 15)) (?v_213 (not ?v_20))) (let ((?v_197 (not ?v_82)) (?v_96 (< (- (- 0 (* 8 x1)) (* 7 x35)) 29))) (let ((?v_221 (not ?v_96)) (?v_185 (<= (+ (* 19 x46) (* 21 x39) (* 14 x22)) 7))) (let ((?v_201 (not ?v_185)) (?v_249 (not ?v_146)) (?v_49 (< (- (- (* (- 22) x16) 0) (* 27 x44)) (- 17)))) (let ((?v_129 (not ?v_49)) (?v_11 (< (- (- (* 26 x36) (* 16 x4)) (* 14 x36)) (- 19))) (?v_7 (< (- (+ (* (- 10) x0) (* 22 x22)) (* 14 x21)) 10))) (let ((?v_131 (not ?v_7)) (?v_15 (= (+ (* (- 10) x5) (* 5 x38) (* 13 x43)) (- 12))) (?v_13 (<= (- (- 0 ?v_30) (* 2 x39)) (- 26)))) (let ((?v_6 (not ?v_13)) (?v_26 (< (- (+ (* 9 x9) (* 22 x18)) (* 25 x26)) (- 19))) (?v_238 (<= (+ (* 26 x46) (* 18 x23) (* 21 x5)) (- 20))) (?v_125 (< (- (- 0 (* 9 x28)) (* 26 x47)) (- 29))) (?v_67 (<= (+ (- (* (- 8) x31) (* 12 x16)) (* 19 x25)) 14))) (let ((?v_128 (not ?v_67)) (?v_95 (distinct (+ (- ?v_41 (* 17 x23)) (* 19 x11)) (- 22))) (?v_148 (distinct (+ (* (- 4) x34) (* 2 x23) (* 9 x11)) (- 4)))) (let ((?v_29 (not ?v_148)) (?v_57 (not ?v_15)) (?v_119 (< (- (- (* (- 1) x25) (* 19 x12)) (* 7 x43)) 23)) (?v_150 (<= (+ (* (- 10) x6) (* 13 x29) (* 8 x32)) (- 20)))) (let ((?v_158 (not ?v_150)) (?v_170 (<= (+ (* 18 x46) (* 20 x49)) (- 7))) (?v_189 (<= (+ (* 10 x38) (* 22 x31)) (- 29)))) (let ((?v_102 (not ?v_189)) (?v_144 (< (- (- (* 3 x38) (* 16 x1)) (* 5 x13)) (- 16)))) (let ((?v_60 (not ?v_144)) (?v_99 (< (+ (- (* (- 1) x41) (* 25 x1)) (* 17 x48)) 25)) (?v_175 (not ?v_26)) (?v_241 (not ?v_11)) (?v_43 (<= (- (- (* (- 22) x10) (* 10 x16)) (* 3 x31)) 29)) (?v_103 (<= (+ (* 13 x23) (* 8 x45) (* 15 x12)) (- 18)))) (let ((?v_33 (not ?v_103)) (?v_147 (< (- (+ ?v_37 (* 26 x31)) 0) (- 22)))) (let ((?v_174 (not ?v_147)) (?v_106 (distinct (- (- (* (- 14) x4) (* 3 x43)) (* 23 x42)) 20))) (let ((?v_142 (not ?v_106)) (?v_52 (< (+ (- (* (- 6) x28) ?v_48) (* 17 x22)) 23)) (?v_51 (= (- (- (* 4 x7) (* 12 x24)) ?v_41) (- 14))) (?v_126 (< (- (+ (* 16 x36) (* 20 x29)) (* 10 x37)) (- 14))) (?v_236 (< (+ ?v_47 (* 16 x17) (* 27 x48)) (- 4)))) (let ((?v_71 (not ?v_236)) (?v_69 (distinct (- (+ (* (- 23) x16) ?v_48) (* 10 x47)) 17)) (?v_85 (not ?v_51)) (?v_153 (not ?v_52)) (?v_243 (<= (- (* 27 x21) x48) (- 16)))) (let ((?v_251 (not ?v_243)) (?v_100 (< (- (+ (* 25 x37) (* 19 x4)) (* 17 x25)) (- 13)))) (let ((?v_130 (not ?v_100)) (?v_209 (= (- (- (* (- 27) x36) (* 8 x43)) (* 21 x9)) (- 8)))) (let ((?v_178 (not ?v_209)) (?v_83 (distinct (- (- 0 (* 5 x30)) (* 21 x4)) (- 9))) (?v_172 (distinct (+ (* 22 x32) (* 8 x36) (* 22 x23)) (- 1)))) (let ((?v_242 (not ?v_172)) (?v_233 (< (- (- (* 27 x14) 0) (* 19 x24)) (- 21)))) (let ((?v_112 (not ?v_233)) (?v_84 (= (- (+ (* (- 15) x29) (* 14 x45)) (* 14 x35)) 24))) (let ((?v_210 (not ?v_84)) (?v_88 (< (- (- (* 13 x38) (* 22 x36)) (* 9 x33)) (- 22)))) (let ((?v_202 (not ?v_88)) (?v_117 (< (- (- (* (- 19) x9) (* 9 x5)) (* 2 x43)) (- 28)))) (let ((?v_138 (not ?v_117)) (?v_113 (not ?v_69)) (?v_86 (<= (+ (* (- 2) x48) (* 21 x10) (* 6 x30)) 29)) (?v_92 (not ?v_83))) (let ((?v_109 (or ?v_92 ?v_84)) (?v_258 (not ?v_86)) (?v_187 (= (- (+ (* (- 25) x10) (* 24 x14)) (* 7 x45)) (- 21))) (?v_218 (not ?v_95)) (?v_193 (< (+ (* (- 20) x8) (* 18 x22) (* 8 x34)) (- 8)))) (let ((?v_98 (not ?v_193)) (?v_133 (not ?v_99)) (?v_194 (not ?v_125)) (?v_239 (distinct (- (- (* (- 10) x10) ?v_37) (* 24 x10)) (- 5)))) (let ((?v_183 (not ?v_239)) (?v_177 (not ?v_170)) (?v_237 (not ?v_187)) (?v_256 (not ?v_43)) (?v_244 (not ?v_126)) (?v_248 (not ?v_119))) (and (and (and (and (and (and (and (and (and (and (and (and (and (and (and (and (and (and (and (and (and (and (and (and (and (and (and (and (and (and (and (and (and (and (and (and (and (and (and (and (and (and (and (and (and (and (and (and (and (and (and (and (and (and (and (and (and (and (and (and (and (and (and (and (and (and (and (and (and (and (and (and (and (and (and (and (and (and (and (and (and (and (and (and (and (and (and (and (and (and (and (and (and (and (and (and (and (and (and (and (and (and (and (and (and (and (and (and (and (and (and (and (and (and (and (and (and (and (and (and (and (and (and (and (and (and (and (and (and (and (and (and (and (and (and (and (and (and (and (and (and (and (and (and (and (and (and (and (and (and (and (and (and (and (and (and (and (and (and (and (and (and (and (and (and (and (and (and (and (and (and (and (and (and (and (and (and (and (and (and (and (and (and (and (and (and (and (and (and (and (and (and (and (and (and (and (and (and (and (and (and (and (and (and (and (and (and (and (and (and (and (and (and (and (and (and (and (and (and (and (and (and (and (and (and (and (and (and (and (and (and (and (and (and (and (and (and (and (and (and (and (and (and (and (and (and (and (and (and (and (and (and (and (and (and (and (and (and (and (and (and (and (and (and (and (and (and (and (and (and (and (and (and (and (and (and (and (and (and (and (and (and (and (and (and (and (and (and (and (and (and (and (and (and (and (and (and (and (and (and (and (and (and (and (and (and (and (and (and (and (and (and (and (and (and (and (and (and (and (and (and (and (and (and (and (and (and (and (and (and (and (and (and (and (and (and (and (and (and (and (and (and (and (and (and (and (and (and (and (and (and (and (and (and (and (and (and (and (and (and (and (and (and (and (and (and (and (and (and (and (and (and (and (and (and (and (and (and (and (and (and (and (and (and (and (and (and (and (and (and (and (and (and (and (and (and (and (and (and (and (and (and (and (and (and (and (and (and (and (and (and (and (and (and (and (and (and (and (and (and (and (and (and (and (and (and (and (and (and (and (and (and (and (and (and (and (and (and (and (and (and (and (and (and (and (and (and (and (and (and (and (and (and (and (and (and (and (and (and (and (and (and (and (and (and (and (and (and (and (and (and (and (and (and (and (and (and (and (and (and (and (and (and (and (and (and (and (and (and (and (and (and (and (and (and (and (and (and (and (and (and (and (and (and (and (and (and (and (and (and (and (and (and (and (and (and (and (and (and (and (and (and (and (and (and (and (and (and (and (and (and (and (and (and (and (and (and (and (and (and (and (and (and (and (and (and (and (and (and (and (and (and (and (and (and (and (and (and (and (and (and (and (and (and (and (and (and (and (and (and (and (and (and (and (and (and (and (and (and (and (and (and (and (and (and (and (and (and (and (and (and (and (and (and (and (and (and (and (and (or (or P42 ?v_111) ?v_127) (or (or ?v_2 ?v_31) ?v_129)) (or (or ?v_12 ?v_9) P11)) (or (or P5 ?v_0) ?v_20)) (or (or ?v_11 ?v_59) ?v_18)) (or (or ?v_3 ?v_0) ?v_39)) (or (or ?v_78 ?v_58) ?v_131)) (or (or P29 ?v_1) P33)) (or (or P24 ?v_1) ?v_14)) (or (or ?v_229 ?v_24) ?v_19)) (or (or ?v_72 ?v_15) P9)) (or (or ?v_6 ?v_160) ?v_26)) (or (or ?v_3 ?v_82) ?v_139)) (or (or ?v_73 ?v_28) ?v_40)) (or (or ?v_4 ?v_10) ?v_121)) (or (or (not ?v_238) P43) ?v_5)) (or (or ?v_53 ?v_192) ?v_6)) (or (or ?v_76 ?v_79) ?v_91)) (or (or ?v_125 ?v_36) ?v_7)) (or (or ?v_17 ?v_9) P23)) (or (or ?v_128 ?v_10) ?v_206)) (or (or ?v_3 ?v_95) ?v_11)) (or (or ?v_12 P26) ?v_0)) (or (or ?v_13 ?v_44) ?v_14)) (or (or ?v_34 ?v_231) ?v_29)) (or (or ?v_22 ?v_57) ?v_16)) (or (or P10 ?v_119) P22)) (or (or ?v_17 ?v_105) ?v_179)) (or (or ?v_18 ?v_19) P18)) (or (or ?v_20 ?v_21) P47)) (or (or ?v_21 P18) ?v_250)) (or (or P21 ?v_158) ?v_170)) (or (or ?v_102 ?v_141) ?v_5)) (or (or ?v_60 ?v_99) ?v_24)) (or (or ?v_146 ?v_54) ?v_175)) (or (or ?v_27 ?v_195) ?v_20)) (or (or ?v_241 ?v_165) ?v_28)) (or (or ?v_29 ?v_38) ?v_15)) (or (or ?v_43 ?v_166) ?v_33)) (or (or ?v_31 P14) ?v_32)) (or (or ?v_33 ?v_136) ?v_34)) (or (or P8 ?v_207) P28)) (or (or ?v_63 ?v_36) ?v_31)) (or (or ?v_174 P38) ?v_65)) (or (or ?v_50 ?v_38) P11)) (or (or ?v_142 ?v_52) ?v_39)) (or (or ?v_56 ?v_45) ?v_32)) (or (or ?v_66 ?v_51) ?v_42)) (or (or ?v_252 ?v_77) ?v_43)) (or (or ?v_44 ?v_45) P48)) (or (or ?v_31 ?v_126) ?v_261)) (or (or ?v_46 ?v_71) ?v_69)) (or (or ?v_49 ?v_1) ?v_50)) (or (or ?v_108 ?v_216) P49)) (or (or ?v_85 ?v_153) ?v_13)) (or (or P29 ?v_151) ?v_62)) (or (or ?v_124 P48) ?v_227)) (or (or ?v_53 ?v_49) ?v_40)) (or (or ?v_199 ?v_38) ?v_155)) (or (or P8 ?v_97) ?v_55)) (or (or ?v_56 ?v_57) ?v_251)) (or (or ?v_58 ?v_130) ?v_94)) (or (or ?v_60 ?v_75) ?v_62)) (or (or ?v_116 ?v_63) ?v_114)) (or (or ?v_64 P31) ?v_4)) (or (or ?v_178 ?v_83) ?v_65)) (or (or ?v_104 ?v_242) ?v_66)) (or (or ?v_29 ?v_67) ?v_93)) (or (or ?v_107 ?v_70) ?v_115)) (or (or ?v_3 ?v_40) ?v_5)) (or (or ?v_112 P25) ?v_69)) (or (or ?v_210 ?v_70) ?v_71)) (or (or ?v_7 ?v_72) ?v_33)) (or (or ?v_0 ?v_73) ?v_202)) (or (or P2 ?v_74) ?v_154)) (or (or ?v_213 ?v_169) ?v_1)) (or (or ?v_62 ?v_75) ?v_76)) (or (or ?v_9 P15) ?v_77)) (or (or ?v_138 ?v_69) ?v_89)) (or (or ?v_113 ?v_26) ?v_78)) (or (or ?v_0 ?v_168) ?v_86)) (or (or P20 P24) ?v_79)) (or (or ?v_101 ?v_40) ?v_46)) (or (or ?v_44 ?v_132) ?v_49)) (or (or ?v_81 ?v_27) ?v_90)) (or (or ?v_120 ?v_118) ?v_197)) (or ?v_109 ?v_40)) (or (or ?v_71 ?v_85) ?v_122)) (or (or ?v_22 ?v_258) ?v_96)) (or (or ?v_163 ?v_14) ?v_87)) (or (or ?v_28 P7) ?v_88)) (or (or ?v_89 ?v_186) ?v_90)) (or (or ?v_83 ?v_91) ?v_56)) (or (or ?v_92 ?v_180) ?v_93)) (or (or ?v_94 ?v_173) ?v_211)) (or (or P41 ?v_187) P19)) (or (or P46 ?v_218) ?v_212)) (or (or ?v_98 ?v_96) ?v_135)) (or (or ?v_204 ?v_28) P29)) (or (or ?v_98 ?v_2) ?v_133)) (or (or ?v_100 ?v_56) P13)) (or (or P20 ?v_101) ?v_102)) (or (or P13 ?v_176) ?v_156)) (or (or ?v_60 ?v_103) ?v_134)) (or (or ?v_27 ?v_36) ?v_104)) (or (or ?v_232 ?v_217) ?v_106)) (or (or ?v_140 ?v_86) ?v_164)) (or ?v_109 ?v_76)) (or (or ?v_4 P29) ?v_52)) (or (or ?v_167 P9) ?v_214)) (or (or ?v_112 ?v_113) ?v_7)) (or (or ?v_55 P12) ?v_114)) (or (or ?v_115 ?v_116) ?v_117)) (or (or ?v_118 ?v_32) ?v_119)) (or (or ?v_120 ?v_203) ?v_121)) (or (or ?v_122 ?v_123) ?v_225)) (or (or ?v_124 ?v_194) ?v_126)) (or (or ?v_127 ?v_124) ?v_43)) (or (or P4 P11) P41)) (or (or ?v_19 ?v_77) ?v_128)) (or (or ?v_74 ?v_56) ?v_104)) (or (or ?v_129 ?v_130) ?v_131)) (or (or ?v_92 ?v_159) ?v_145)) (or (or ?v_133 ?v_134) P46)) (or (or P20 ?v_67) ?v_135)) (or (or ?v_137 ?v_99) ?v_88)) (or (or ?v_224 ?v_126) ?v_137)) (or (or P26 ?v_114) ?v_22)) (or (or ?v_107 ?v_138) ?v_67)) (or (or ?v_50 P2) ?v_139)) (or (or P20 ?v_71) ?v_66)) (or (or ?v_235 P7) ?v_140)) (or (or ?v_21 ?v_140) ?v_131)) (or (or ?v_152 P29) ?v_208)) (or (or ?v_141 ?v_142) ?v_143)) (or (or ?v_93 ?v_78) ?v_97)) (or (or ?v_140 P15) ?v_144)) (or (or ?v_72 ?v_145) ?v_146)) (or (or ?v_139 ?v_141) P27)) (or (or ?v_147 ?v_56) ?v_148)) (or (or ?v_92 ?v_71) ?v_88)) (or (or ?v_139 ?v_149) P10)) (or (or ?v_150 P36) P24)) (or (or ?v_151 ?v_87) P2)) (or (or ?v_132 ?v_145) ?v_72)) (or (or ?v_152 ?v_9) ?v_153)) (or (or ?v_154 ?v_123) ?v_155)) (or (or ?v_130 P4) ?v_156)) (or (or ?v_32 ?v_157) ?v_31)) (or (or P0 ?v_121) P20)) (or (or P26 ?v_158) ?v_221)) (or (or ?v_150 ?v_140) ?v_13)) (or (or P45 ?v_159) P3)) (or (or P38 ?v_127) ?v_183)) (or (or ?v_141 P36) ?v_160)) (or (or ?v_161 P17) ?v_52)) (or (or ?v_198 ?v_53) ?v_1)) (or (or ?v_162 ?v_163) ?v_126)) (or (or ?v_67 P34) ?v_77)) (or (or ?v_14 ?v_164) ?v_3)) (or (or ?v_130 ?v_165) P28)) (or (or P22 P9) ?v_127)) (or (or ?v_230 ?v_188) ?v_240)) (or (or P30 ?v_164) ?v_81)) (or (or ?v_167 ?v_168) ?v_169)) (or (or ?v_154 ?v_130) P0)) (or (or ?v_177 ?v_13) P48)) (or (or ?v_171 ?v_154) ?v_99)) (or (or ?v_119 ?v_116) ?v_172)) (or (or ?v_36 P21) P45)) (or (or ?v_162 ?v_51) P5)) (or (or ?v_17 ?v_173) P34)) (or (or ?v_101 ?v_147) ?v_182)) (or (or ?v_174 P45) ?v_50)) (or (or ?v_88 P7) ?v_175)) (or (or ?v_164 ?v_20) ?v_131)) (or (or ?v_176 P22) ?v_177)) (or (or ?v_178 ?v_179) ?v_95)) (or (or P48 ?v_201) ?v_180)) (or (or ?v_64 ?v_16) ?v_108)) (or (or ?v_181 ?v_169) P46)) (or (or ?v_13 P6) ?v_182)) (or (or ?v_156 ?v_200) P44)) (or (or P0 ?v_59) P41)) (or (or ?v_103 ?v_184) P42)) (or (or ?v_183 P23) ?v_89)) (or (or ?v_184 ?v_185) ?v_186)) (or (or ?v_34 ?v_135) P19)) (or (or ?v_33 ?v_2) ?v_228)) (or (or ?v_237 ?v_153) ?v_188)) (or (or ?v_164 ?v_165) ?v_28)) (or (or ?v_27 P47) ?v_136)) (or (or ?v_189 P27) ?v_190)) (or (or ?v_32 ?v_167) ?v_191)) (or (or ?v_73 ?v_184) ?v_128)) (or (or ?v_192 P35) ?v_16)) (or (or ?v_139 ?v_138) ?v_12)) (or (or ?v_179 ?v_193) P44)) (or (or ?v_93 ?v_139) ?v_45)) (or (or ?v_127 ?v_72) ?v_119)) (or (or ?v_104 P1) ?v_194)) (or (or ?v_3 ?v_135) ?v_108)) (or (or P24 ?v_138) P30)) (or (or ?v_195 ?v_50) ?v_102)) (or (or P44 ?v_196) ?v_197)) (or (or ?v_106 ?v_126) ?v_65)) (or (or ?v_166 ?v_18) ?v_222)) (or (or ?v_26 ?v_43) P40)) (or (or ?v_198 ?v_118) ?v_40)) (or (or ?v_199 P21) ?v_1)) (or (or ?v_87 ?v_245) P22)) (or (or ?v_135 ?v_200) ?v_88)) (or (or ?v_201 ?v_111) ?v_38)) (or (or ?v_182 ?v_72) ?v_219)) (or (or ?v_99 P4) ?v_33)) (or (or P43 ?v_202) P44)) (or (or ?v_71 ?v_203) ?v_204)) (or (or ?v_99 ?v_205) ?v_115)) (or (or ?v_100 P27) ?v_52)) (or (or ?v_206 ?v_215) ?v_144)) (or (or ?v_69 ?v_207) ?v_208)) (or (or ?v_209 ?v_185) ?v_189)) (or (or ?v_256 ?v_118) ?v_144)) (or (or P43 P45) ?v_57)) (or (or ?v_162 ?v_210) ?v_211)) (or (or ?v_3 P35) ?v_191)) (or (or ?v_24 ?v_69) ?v_59)) (or (or ?v_102 ?v_81) ?v_168)) (or (or ?v_196 ?v_189) ?v_71)) (or (or ?v_199 ?v_40) ?v_120)) (or (or ?v_255 ?v_97) ?v_212)) (or (or ?v_52 ?v_86) ?v_83)) (or (or ?v_57 ?v_34) ?v_130)) (or (or ?v_213 ?v_210) ?v_65)) (or (or ?v_134 P33) P31)) (or (or ?v_10 ?v_112) ?v_91)) (or (or ?v_85 ?v_98) ?v_166)) (or (or ?v_214 ?v_13) ?v_21)) (or (or ?v_84 ?v_215) P13)) (or (or ?v_38 ?v_93) ?v_215)) (or (or ?v_216 P10) ?v_3)) (or (or ?v_186 ?v_10) ?v_128)) (or (or ?v_217 ?v_196) ?v_163)) (or (or ?v_218 ?v_98) ?v_201)) (or (or ?v_219 ?v_164) ?v_181)) (or (or ?v_16 ?v_220) ?v_130)) (or (or ?v_180 ?v_208) ?v_182)) (or (or ?v_111 ?v_13) ?v_221)) (or (or ?v_194 ?v_101) ?v_129)) (or (or ?v_174 ?v_222) ?v_172)) (or (or ?v_170 P45) ?v_244)) (or (or ?v_223 ?v_15) ?v_138)) (or (or ?v_99 P47) ?v_224)) (or (or P43 ?v_17) ?v_82)) (or (or ?v_22 ?v_176) ?v_181)) (or (or ?v_0 ?v_19) ?v_84)) (or (or ?v_6 ?v_21) ?v_225)) (or (or ?v_226 ?v_21) ?v_16)) (or (or ?v_194 ?v_103) ?v_53)) (or (or ?v_227 ?v_77) ?v_131)) (or (or ?v_183 ?v_222) ?v_73)) (or (or P26 ?v_213) ?v_142)) (or (or ?v_145 ?v_55) ?v_29)) (or (or ?v_95 ?v_141) P46)) (or (or ?v_170 ?v_92) ?v_171)) (or (or ?v_102 P41) ?v_228)) (or (or ?v_85 ?v_1) ?v_93)) (or (or ?v_229 ?v_230) ?v_67)) (or (or ?v_161 ?v_76) ?v_106)) (or (or ?v_78 ?v_76) ?v_43)) (or (or ?v_231 ?v_130) ?v_98)) (or (or ?v_199 ?v_232) ?v_225)) (or (or ?v_117 ?v_171) ?v_233)) (or (or ?v_96 ?v_39) ?v_124)) (or (or ?v_94 ?v_234) P0)) (or (or ?v_17 P8) ?v_138)) (or (or ?v_63 ?v_1) ?v_156)) (or (or P44 ?v_235) ?v_196)) (or (or P14 ?v_106) P22)) (or (or ?v_27 ?v_19) ?v_71)) (or (or ?v_97 P2) ?v_15)) (or (or ?v_131 P10) ?v_223)) (or (or ?v_210 ?v_134) ?v_203)) (or (or ?v_221 ?v_88) ?v_89)) (or (or ?v_221 ?v_236) P32)) (or (or ?v_45 ?v_183) ?v_237)) (or (or ?v_163 ?v_101) ?v_3)) (or (or P15 ?v_139) ?v_27)) (or (or ?v_15 P32) P33)) (or (or ?v_102 ?v_51) ?v_104)) (or (or ?v_222 ?v_124) ?v_189)) (or (or ?v_33 ?v_238) ?v_43)) (or (or ?v_213 ?v_135) ?v_65)) (or (or ?v_239 ?v_114) P34)) (or (or ?v_217 ?v_154) ?v_94)) (or (or ?v_85 ?v_249) P2)) (or (or ?v_114 ?v_20) ?v_248)) (or (or ?v_156 ?v_4) ?v_125)) (or (or ?v_97 ?v_105) ?v_66)) (or (or ?v_202 ?v_62) ?v_223)) (or (or ?v_77 ?v_1) ?v_76)) (or (or ?v_1 P13) ?v_69)) (or (or ?v_20 ?v_85) ?v_132)) (or (or ?v_154 ?v_46) P16)) (or (or ?v_64 ?v_197) ?v_60)) (or (or P11 ?v_194) ?v_183)) (or (or ?v_223 ?v_94) ?v_22)) (or (or ?v_240 ?v_88) ?v_229)) (or (or ?v_241 P37) ?v_207)) (or (or ?v_71 P33) ?v_1)) (or (or ?v_9 ?v_19) ?v_90)) (or (or ?v_128 P41) P21)) (or (or ?v_242 ?v_1) ?v_99)) (or (or P44 ?v_118) P3)) (or (or ?v_33 ?v_144) ?v_17)) (or (or P49 ?v_69) ?v_154)) (or (or ?v_58 ?v_243) ?v_188)) (or (or P41 P11) P34)) (or (or ?v_120 P19) ?v_90)) (or (or ?v_29 ?v_148) P41)) (or (or P6 P21) ?v_189)) (or (or ?v_128 ?v_244) ?v_33)) (or (or ?v_234 ?v_65) ?v_198)) (or (or ?v_164 P32) ?v_57)) (or (or ?v_186 ?v_245) ?v_205)) (or (or ?v_113 ?v_154) P34)) (or (or ?v_104 ?v_92) ?v_246)) (or (or ?v_216 P34) ?v_204)) (or (or ?v_19 ?v_74) ?v_188)) (or (or P25 ?v_111) ?v_132)) (or (or ?v_241 ?v_2) P8)) (or (or ?v_72 ?v_39) ?v_26)) (or (or ?v_54 P46) ?v_34)) (or (or ?v_147 ?v_6) ?v_0)) (or (or ?v_188 P29) ?v_241)) (or (or ?v_74 ?v_199) ?v_45)) (or (or ?v_147 ?v_38) ?v_14)) (or (or ?v_99 P34) ?v_113)) (or (or ?v_186 ?v_189) ?v_204)) (or (or ?v_103 ?v_232) ?v_234)) (or (or P7 ?v_193) ?v_247)) (or (or ?v_119 ?v_53) ?v_63)) (or (or ?v_214 ?v_137) ?v_107)) (or (or ?v_56 ?v_218) ?v_230)) (or (or ?v_205 ?v_97) ?v_192)) (or (or P2 ?v_141) ?v_191)) (or (or ?v_116 ?v_131) ?v_165)) (or (or ?v_226 ?v_167) ?v_121)) (or (or P26 ?v_97) ?v_199)) (or (or ?v_130 ?v_103) ?v_122)) (or (or ?v_241 ?v_228) ?v_67)) (or (or ?v_43 ?v_27) ?v_106)) (or (or ?v_174 ?v_229) ?v_156)) (or (or ?v_214 ?v_126) ?v_59)) (or (or ?v_218 ?v_137) ?v_215)) (or (or ?v_14 ?v_213) ?v_179)) (or (or ?v_129 ?v_233) P3)) (or (or ?v_169 P24) ?v_241)) (or (or ?v_152 ?v_171) P35)) (or (or ?v_6 ?v_1) ?v_242)) (or (or ?v_148 ?v_151) P2)) (or (or P41 P22) ?v_163)) (or (or ?v_237 ?v_50) ?v_171)) (or (or P21 ?v_51) ?v_234)) (or (or ?v_227 ?v_136) ?v_95)) (or (or P24 ?v_76) ?v_151)) (or (or ?v_20 ?v_75) ?v_184)) (or (or P23 P36) ?v_172)) (or (or ?v_192 ?v_227) P48)) (or (or ?v_222 ?v_100) ?v_122)) (or (or ?v_93 ?v_154) ?v_82)) (or (or ?v_73 ?v_78) ?v_229)) (or (or P16 P13) ?v_151)) (or (or ?v_159 P22) P15)) (or (or ?v_248 ?v_211) ?v_238)) (or (or P17 P6) P34)) (or (or P43 ?v_197) ?v_174)) (or (or ?v_213 ?v_19) ?v_42)) (or (or ?v_249 ?v_6) ?v_12)) (or (or ?v_183 P31) ?v_169)) (or (or ?v_81 ?v_82) ?v_184)) (or (or ?v_136 ?v_254) P48)) (or (or ?v_67 ?v_185) ?v_113)) (or (or ?v_250 ?v_81) ?v_65)) (or (or ?v_65 ?v_151) ?v_87)) (or (or ?v_76 ?v_27) P16)) (or (or ?v_223 ?v_102) P2)) (or (or ?v_50 ?v_205) ?v_125)) (or (or P42 ?v_195) ?v_221)) (or (or P22 P6) P3)) (or (or P6 ?v_257) P16)) (or (or ?v_157 ?v_160) ?v_239)) (or (or ?v_93 P10) ?v_240)) (or (or ?v_136 ?v_15) ?v_251)) (or (or ?v_77 ?v_50) ?v_102)) (or (or P17 ?v_180) ?v_187)) (or (or ?v_88 ?v_106) ?v_3)) (or (or ?v_246 ?v_168) ?v_89)) (or (or P34 ?v_159) P23)) (or (or ?v_6 P47) ?v_200)) (or (or ?v_5 ?v_259) ?v_139)) (or (or ?v_28 ?v_118) ?v_236)) (or (or ?v_239 ?v_29) P43)) (or (or ?v_100 ?v_16) ?v_226)) (or (or ?v_87 ?v_11) P22)) (or (or P11 ?v_207) ?v_196)) (or (or ?v_235 ?v_140) ?v_186)) (or (or ?v_150 ?v_144) ?v_14)) (or (or ?v_131 ?v_146) ?v_36)) (or (or ?v_150 ?v_71) ?v_172)) (or (or ?v_67 ?v_207) ?v_120)) (or (or P26 ?v_144) ?v_153)) (or (or ?v_225 ?v_158) ?v_20)) (or (or ?v_72 ?v_42) ?v_104)) (or (or ?v_82 ?v_74) ?v_236)) (or (or ?v_27 ?v_106) P44)) (or (or ?v_192 ?v_204) ?v_203)) (or (or ?v_209 ?v_28) ?v_223)) (or (or ?v_91 ?v_114) ?v_16)) (or (or ?v_238 ?v_236) ?v_9)) (or (or ?v_231 P46) P17)) (or (or ?v_100 ?v_101) ?v_212)) (or (or ?v_12 ?v_12) P39)) (or (or ?v_52 ?v_114) ?v_202)) (or (or P48 ?v_100) P42)) (or (or ?v_168 ?v_175) ?v_215)) (or (or P21 ?v_175) ?v_122)) (or (or ?v_234 ?v_144) ?v_168)) (or (or ?v_40 ?v_168) ?v_228)) (or (or ?v_26 ?v_173) ?v_81)) (or (or ?v_82 ?v_63) ?v_134)) (or (or ?v_139 ?v_201) ?v_138)) (or (or ?v_85 ?v_111) ?v_29)) (or (or ?v_181 P2) P26)) (or (or ?v_111 ?v_108) ?v_181)) (or (or ?v_63 P33) ?v_155)) (or (or ?v_252 ?v_63) P42)) (or (or ?v_206 ?v_11) ?v_249)) (or (or ?v_179 ?v_51) ?v_139)) (or (or ?v_36 ?v_159) ?v_132)) (or (or ?v_108 P38) ?v_144)) (or (or ?v_95 ?v_162) ?v_157)) (or (or P41 ?v_234) ?v_183)) (or (or ?v_50 P39) ?v_166)) (or (or ?v_36 ?v_183) ?v_145)) (or (or ?v_32 ?v_107) ?v_150)) (or (or ?v_21 ?v_203) ?v_29)) (or (or ?v_232 P6) ?v_32)) (or (or ?v_118 ?v_101) ?v_132)) (or (or ?v_168 ?v_156) ?v_126)) (or (or ?v_221 P38) P12)) (or (or ?v_11 ?v_73) ?v_218)) (or (or ?v_175 P40) ?v_81)) (or (or ?v_189 ?v_33) ?v_117)) (or (or ?v_233 ?v_167) P49)) (or (or P20 P13) P31)) (or (or ?v_159 ?v_184) ?v_91)) (or (or ?v_146 ?v_38) ?v_24)) (or (or ?v_28 ?v_44) ?v_36)) (or (or P19 ?v_33) ?v_119)) (or (or ?v_186 ?v_7) ?v_209)) (or (or ?v_184 ?v_93) P25)) (or (or P34 ?v_130) ?v_128)) (or (or ?v_65 ?v_2) ?v_27)) (or (or ?v_21 ?v_65) ?v_237)) (or (or P42 P21) ?v_33)) (or (or ?v_127 ?v_191) P1)) (or (or ?v_232 ?v_70) ?v_163)) (or (or ?v_240 P22) ?v_55)) (or (or ?v_248 ?v_190) ?v_101)) (or (or ?v_163 ?v_142) ?v_207)) (or (or ?v_130 P35) ?v_55)) (or (or ?v_9 ?v_160) ?v_230)) (or (or ?v_215 ?v_99) ?v_250)) (or (or P22 ?v_204) ?v_179)) (or (or P9 ?v_26) ?v_198)) (or (or ?v_89 ?v_14) ?v_238)) (or (or ?v_124 P5) ?v_115)) (or (or ?v_138 ?v_251) ?v_125)) (or (or ?v_132 P32) ?v_147)) (or (or ?v_195 P23) ?v_13)) (or (or ?v_51 ?v_170) ?v_50)) (or (or ?v_250 ?v_180) ?v_21)) (or (or ?v_113 ?v_212) ?v_133)) (or (or ?v_1 ?v_191) P49)) (or (or ?v_44 ?v_65) P47)) (or (or ?v_172 ?v_102) ?v_240)) (or (or ?v_188 ?v_253) ?v_237)) (or (or P12 ?v_171) ?v_202)) (or (or ?v_57 ?v_226) ?v_185)) (or (or ?v_156 ?v_136) ?v_253)) (or (or ?v_50 ?v_53) ?v_247)) (or (or P7 ?v_79) ?v_92)) (or (or ?v_228 P8) ?v_126)) (or (or ?v_29 ?v_158) ?v_198)) (or (or ?v_140 ?v_190) ?v_62)) (or (or P12 ?v_96) ?v_210)) (or (or ?v_236 P49) ?v_87)) (or (or ?v_15 ?v_140) ?v_137)) (or (or ?v_187 ?v_107) ?v_148)) (or (or ?v_119 ?v_236) ?v_250)) (or (or ?v_254 ?v_186) ?v_210)) (or (or ?v_229 ?v_96) P30)) (or (or ?v_13 ?v_198) ?v_220)) (or (or ?v_242 ?v_142) ?v_140)) (or (or ?v_239 ?v_102) ?v_237)) (or (or ?v_9 ?v_214) ?v_141)) (or (or ?v_63 P4) ?v_178)) (or (or ?v_34 ?v_165) ?v_84)) (or (or ?v_241 ?v_154) P3)) (or (or ?v_205 ?v_255) ?v_138)) (or (or ?v_156 ?v_108) ?v_81)) (or (or P46 ?v_179) ?v_43)) (or (or ?v_250 ?v_93) ?v_260)) (or (or ?v_225 ?v_24) P18)) (or (or ?v_234 ?v_256) ?v_21)) (or (or ?v_252 ?v_257) ?v_195)) (or (or ?v_203 P42) ?v_221)) (or (or ?v_13 P45) ?v_125)) (or (or ?v_55 ?v_95) ?v_234)) (or (or ?v_186 ?v_225) ?v_212)) (or (or P19 ?v_65) ?v_184)) (or (or ?v_177 ?v_92) ?v_254)) (or (or ?v_32 P33) ?v_219)) (or (or ?v_112 P29) P1)) (or (or ?v_128 ?v_169) P22)) (or (or P26 ?v_251) ?v_66)) (or (or ?v_129 P16) ?v_97)) (or (or ?v_189 ?v_143) P4)) (or (or ?v_258 ?v_193) ?v_148)) (or (or P30 ?v_240) ?v_140)) (or (or ?v_155 ?v_10) ?v_77)) (or (or ?v_85 ?v_58) ?v_213)) (or (or ?v_155 P34) ?v_237)) (or (or ?v_215 P47) ?v_24)) (or (or P6 P18) P38)) (or (or ?v_256 ?v_138) ?v_120)) (or (or P5 ?v_45) ?v_84)) (or (or ?v_245 ?v_218) ?v_130)) (or (or ?v_17 P2) ?v_129)) (or (or ?v_218 P22) ?v_55)) (or (or ?v_171 ?v_69) P18)) (or (or ?v_152 ?v_21) P37)) (or (or ?v_191 ?v_158) ?v_74)) (or (or ?v_97 ?v_136) ?v_139)) (or (or ?v_4 ?v_19) ?v_193)) (or (or ?v_196 ?v_169) P38)) (or (or ?v_79 ?v_11) ?v_248)) (or (or ?v_249 ?v_244) ?v_51)) (or (or ?v_88 ?v_189) ?v_223)) (or (or ?v_249 ?v_0) P24)) (or (or ?v_189 P8) P40)) (or (or ?v_232 P44) P32)) (or (or P18 ?v_81) ?v_227)) (or (or ?v_99 ?v_135) ?v_58)) (or (or ?v_248 ?v_120) P14)) (or (or ?v_115 ?v_208) ?v_43)) (or (or ?v_231 ?v_244) ?v_124)) (or (or P31 ?v_139) ?v_93)) (or (or P42 ?v_204) ?v_234)) (or (or ?v_234 ?v_46) ?v_156)) (or (or P18 ?v_259) P46)) (or (or ?v_64 ?v_168) ?v_177)) (or (or P38 P39) ?v_105)) (or (or P49 ?v_121) ?v_222)) (or (or ?v_11 P45) ?v_223)) (or (or ?v_166 ?v_149) P25)) (or (or ?v_81 P23) P20)) (or (or ?v_174 P15) ?v_242)) (or (or ?v_225 ?v_208) P22)) (or (or ?v_89 ?v_18) ?v_232)) (or (or ?v_194 ?v_4) P16)) (or (or ?v_239 ?v_251) ?v_38)) (or (or ?v_39 ?v_188) ?v_167)) (or (or ?v_95 ?v_244) ?v_39)) (or (or ?v_260 ?v_148) ?v_218)) (or (or ?v_87 ?v_103) P31)) (or (or P39 ?v_44) ?v_113)) (or (or ?v_7 ?v_144) ?v_20)) (or (or ?v_250 ?v_257) ?v_202)) (or (or ?v_197 ?v_207) P29)) (or (or ?v_168 ?v_174) ?v_135)) (or (or ?v_126 P18) P21)) (or (or ?v_218 ?v_254) ?v_13)) (or (or ?v_186 ?v_246) ?v_28)) (or (or P30 ?v_225) ?v_106)) (or (or ?v_133 P23) ?v_76)) (or (or ?v_178 ?v_239) P14)) (or (or ?v_229 P7) P18)) (or (or P40 ?v_196) ?v_177)) (or (or ?v_107 ?v_129) P19)) (or (or ?v_179 ?v_244) ?v_182)) (or (or ?v_172 ?v_250) ?v_203)) (or (or ?v_233 ?v_235) P31)) (or (or ?v_14 ?v_249) ?v_112)) (or (or P3 ?v_177) ?v_214)) (or (or ?v_238 ?v_188) ?v_9)) (or (or ?v_167 ?v_242) P26)) (or (or ?v_129 ?v_261) P31)) (or (or ?v_101 P41) ?v_213))))))))))))))))))))))))))))))))))))))))))
(check-sat)
(exit)
